
m=11;																		%numero dei corsi	

corsi 	= ["Meccanica", "Circuiti", "Telematica", "Informatica", "Sistemi", "Elettronica", "Chimica", "laboratorio", "Calcolatori", "Inglese", "IA"];

ac 		= [1,1,3,1,2,2,3,2,3,2,1];														%Anno curricolare per ogni corso

hc 		= [3,5,6,4,3,7,4,5,6,3,3];														%Ore settimanali per ogni corso

k=8; 																		%numero dei docenti

docenti = ["Forni", "Trambusti", "Venturini", "Nocentini", "Ricci", "Mugelli", "Bartoli", "Bianchi"];

insegna = [|
	1,0,0,1,1,0,1,0,0,0,1|
	1,0,0,0,0,1,1,0,1,1,1|
	0,0,1,0,1,0,0,0,1,0,1|
	0,1,1,1,1,0,0,1,0,0,1|
	1,1,1,1,1,0,0,1,1,1,0|
	1,1,1,1,1,0,0,1,1,1,0|
	1,1,1,1,1,0,0,1,1,1,0|
	1,1,1,1,1,0,0,1,1,1,0|];